\ENCODING=ISO-8859-1
\Problem name: nSARP

Maximize
 obj1: - 6.13333333333333 x(0,1,0) - 6.13333333333333 x(0,1,1)
       - 19.9348666666667 x(0,2,0) - 19.9348666666667 x(0,2,1) - 23 x(0,3,0)
       - 23 x(0,3,1) - 29.1333333333333 x(1,0,0) - 29.1333333333333 x(1,0,1)
       - 36.8 x(1,2,0) - 36.8 x(1,2,1) - 6.13333333333333 x(1,3,0)
       - 6.13333333333333 x(1,3,1) + 72.54 x(2,0,0) + 72.54 x(2,0,1)
       + 54.14 x(2,1,0) + 54.14 x(2,1,1) + 80.2066666666666 x(2,2,0)
       + 80.2066666666666 x(2,2,1) - 35.2666666666667 x(3,0,0)
       - 35.2666666666667 x(3,0,1) - 16.8666666666667 x(3,1,0)
       - 16.8666666666667 x(3,1,1) - 15.3333333333333 x(4,0,0)
       - 15.3333333333333 x(4,0,1) - 33.7333333333333 x(4,1,0)
       - 33.7333333333333 x(4,1,1) - 7.66666666666667 x(4,2,0)
       - 7.66666666666667 x(4,2,1) - 15.3333333333333 x(5,0,0)
       - 15.3333333333333 x(5,0,1) - 33.7333333333333 x(5,1,0)
       - 33.7333333333333 x(5,1,1) - 7.66666666666667 x(5,2,0)
       - 7.66666666666667 x(5,2,1) + 0 y(6) + 34.98
Subject To
 Constraint1_0:    x(0,1,0) + x(0,1,1) + x(0,2,0) + x(0,2,1) + x(0,3,0)
                   + x(0,3,1) + x(0,6,0) + x(0,6,1)  = 1
 Constraint1_1:    x(1,0,0) + x(1,0,1) + x(1,2,0) + x(1,2,1) + x(1,3,0)
                   + x(1,3,1) + x(1,6,0) + x(1,6,1)  = 1
 Constraint2_2:    x(2,0,0) + x(2,0,1) + x(2,1,0) + x(2,1,1) + x(2,2,0)
                   + x(2,2,1) - y(2)  = 0
 Constraint3_2_0:  x(2,0,0) + x(2,1,0) + x(2,2,0) - x(3,0,0) - x(3,1,0)
                   - x(3,3,0) - x(3,6,0)  = 0
 Constraint3_2_1:  x(2,0,1) + x(2,1,1) + x(2,2,1) - x(3,0,1) - x(3,1,1)
                   - x(3,3,1) - x(3,6,1)  = 0
 Constraint4_0_0:  x(0,1,0) + x(0,2,0) + x(0,3,0) + x(0,6,0) - x(1,0,0)
                   - x(2,0,0) - x(3,0,0) - x(4,0,0) - x(5,0,0)  = 0
 Constraint4_0_1:  x(0,1,1) + x(0,2,1) + x(0,3,1) + x(0,6,1) - x(1,0,1)
                   - x(2,0,1) - x(3,0,1) - x(4,0,1) - x(5,0,1)  = 0
 Constraint4_1_0:  - x(0,1,0) + x(1,0,0) + x(1,2,0) + x(1,3,0) + x(1,6,0)
                   - x(2,1,0) - x(3,1,0) - x(4,1,0) - x(5,1,0)  = 0
 Constraint4_1_1:  - x(0,1,1) + x(1,0,1) + x(1,2,1) + x(1,3,1) + x(1,6,1)
                   - x(2,1,1) - x(3,1,1) - x(4,1,1) - x(5,1,1)  = 0
 Constraint4_2_0:  - x(0,2,0) - x(1,2,0) + x(2,0,0) + x(2,1,0) - x(4,2,0)
                   - x(5,2,0)  = 0
 Constraint4_2_1:  - x(0,2,1) - x(1,2,1) + x(2,0,1) + x(2,1,1) - x(4,2,1)
                   - x(5,2,1)  = 0
 Constraint4_3_0:  - x(0,3,0) - x(1,3,0) + x(3,0,0) + x(3,1,0) + x(3,6,0)  = 0
 Constraint4_3_1:  - x(0,3,1) - x(1,3,1) + x(3,0,1) + x(3,1,1) + x(3,6,1)  = 0
 Constraint5_0:    x(4,0,0) + x(4,1,0) + x(4,2,0)  = 1
 Constraint5_1:    x(5,0,1) + x(5,1,1) + x(5,2,1)  = 1
 Constraint6_0:    x(0,6,0) + x(1,6,0) + x(3,6,0)  = 1
 Constraint6_1:    x(0,6,1) + x(1,6,1) + x(3,6,1)  = 1
 Constraint7_0:    - 34 y(0) + b(0) <= 0
 Constraint7_1:    - 34 y(1) + b(1) <= 0
 Constraint7_2:    - 34 y(2) + b(2) <= 0
 Constraint7_3:    - 34 y(3) + b(3) <= 0
 Constraint7_4:    - 34 y(4) + b(4) <= 0
 Constraint7_5:    - 34 y(5) + b(5) <= 0
 Constraint8_2:    b(2) - b(3) <= 0
 Constraint9_0_1:  34 x(0,1,0) + 34 x(0,1,1) + b(0) - b(1) <= 31.7607944732297
 Constraint9_0_2:  34 x(0,2,0) + 34 x(0,2,1) + b(0) - b(2) <= 30.2062176165803
 Constraint9_0_3:  34 x(0,3,0) + 34 x(0,3,1) + b(0) - b(3) <= 29.8609671848014
 Constraint9_0_6:  34 x(0,6,0) + 34 x(0,6,1) + b(0) - b(6) <= 32.4516407599309
 Constraint9_1_0:  34 x(1,0,0) + 34 x(1,0,1) - b(0) + b(1) <= 29.3428324697755
 Constraint9_1_2:  34 x(1,2,0) + 34 x(1,2,1) + b(1) - b(2) <= 28.479274611399
 Constraint9_1_3:  34 x(1,3,0) + 34 x(1,3,1) + b(1) - b(3) <= 31.933506044905
 Constraint9_1_6:  34 x(1,6,0) + 34 x(1,6,1) + b(1) - b(6) <= 32.6243523316062
 Constraint9_2_0:  34 x(2,0,0) + 34 x(2,0,1) - b(0) + b(2) <= 33.0531088082902
 Constraint9_2_1:  34 x(2,1,0) + 34 x(2,1,1) - b(1) + b(2) <= 30.9805699481865
 Constraint9_2_2:  34 x(2,2,0) + 34 x(2,2,1) <= 33.9166666666667
 Constraint9_3_0:  34 x(3,0,0) + 34 x(3,0,1) - b(0) + b(3) <= 29.9443005181347
 Constraint9_3_1:  34 x(3,1,0) + 34 x(3,1,1) - b(1) + b(3) <= 32.0168393782383
 Constraint9_3_3:  34 x(3,3,0) + 34 x(3,3,1) <= 33.9166666666667
 Constraint9_3_6:  34 x(3,6,0) + 34 x(3,6,1) + b(3) - b(6) <= 33.9166666666667
 Constraint9_4_0:  34 x(4,0,0) + 34 x(4,0,1) - b(0) + b(4) <= 32.272884283247
 Constraint9_4_1:  34 x(4,1,0) + 34 x(4,1,1) - b(1) + b(4) <= 30.2003454231434
 Constraint9_4_2:  34 x(4,2,0) + 34 x(4,2,1) - b(2) + b(4) <= 33.1364421416235
 Constraint9_5_0:  34 x(5,0,0) + 34 x(5,0,1) - b(0) + b(5) <= 32.272884283247
 Constraint9_5_1:  34 x(5,1,0) + 34 x(5,1,1) - b(1) + b(5) <= 30.2003454231434
 Constraint9_5_2:  34 x(5,2,0) + 34 x(5,2,1) - b(2) + b(5) <= 33.1364421416235
 Constraint10_0_1: - 2 x(0,1,0) - 2 x(0,1,1) - w(0) + w(1) >= -2
 Constraint10_0_2: - 2 x(0,2,0) - 2 x(0,2,1) - w(0) + w(2) >= -1
 Constraint10_0_3: - 2 x(0,3,0) - 2 x(0,3,1) - w(0) + w(3) >= -3
 Constraint10_0_6: - 2 x(0,6,0) - 2 x(0,6,1) - w(0) + w(6) >= -2
 Constraint10_1_0: - 2 x(1,0,0) - 2 x(1,0,1) + w(0) - w(1) >= -2
 Constraint10_1_2: - 2 x(1,2,0) - 2 x(1,2,1) - w(1) + w(2) >= -1
 Constraint10_1_3: - 2 x(1,3,0) - 2 x(1,3,1) - w(1) + w(3) >= -3
 Constraint10_1_6: - 2 x(1,6,0) - 2 x(1,6,1) - w(1) + w(6) >= -2
 Constraint10_2_0: - 2 x(2,0,0) - 2 x(2,0,1) + w(0) - w(2) >= -2
 Constraint10_2_1: - 2 x(2,1,0) - 2 x(2,1,1) + w(1) - w(2) >= -2
 Constraint10_2_2: - 2 x(2,2,0) - 2 x(2,2,1) >= -1
 Constraint10_3_0: - 2 x(3,0,0) - 2 x(3,0,1) + w(0) - w(3) >= -2
 Constraint10_3_1: - 2 x(3,1,0) - 2 x(3,1,1) + w(1) - w(3) >= -2
 Constraint10_3_3: - 2 x(3,3,0) - 2 x(3,3,1) >= -3
 Constraint10_3_6: - 2 x(3,6,0) - 2 x(3,6,1) - w(3) + w(6) >= -2
 Constraint10_4_0: - 2 x(4,0,0) - 2 x(4,0,1) + w(0) - w(4) >= -2
 Constraint10_4_1: - 2 x(4,1,0) - 2 x(4,1,1) + w(1) - w(4) >= -2
 Constraint10_4_2: - 2 x(4,2,0) - 2 x(4,2,1) + w(2) - w(4) >= -1
 Constraint10_5_0: - 2 x(5,0,0) - 2 x(5,0,1) + w(0) - w(5) >= -2
 Constraint10_5_1: - 2 x(5,1,0) - 2 x(5,1,1) + w(1) - w(5) >= -2
 Constraint10_5_2: - 2 x(5,2,0) - 2 x(5,2,1) + w(2) - w(5) >= -1
 Constraint11_0_0: b(0) <= 11.9
 Constraint12_0_0: b(0) >= 11.9
 Constraint11_0_1: b(0) <= 11.9
 Constraint12_0_1: b(0) >= 11.9
 Constraint11_1_0: b(1) <= 15.9833333333333
 Constraint12_1_0: b(1) >= 15.9833333333333
 Constraint11_1_1: b(1) <= 15.9833333333333
 Constraint12_1_1: b(1) >= 15.9833333333333
 Constraint11_2_0: b(2) <= 17
 Constraint12_2_0: b(2) >= 0
 Constraint11_2_1: b(2) <= 17
 Constraint12_2_1: b(2) >= 0
 Constraint11_3_0: b(3) <= 17
 Constraint12_3_0: b(3) >= 0
 Constraint11_3_1: b(3) <= 17
 Constraint12_3_1: b(3) >= 0
 Constraint11_4_0: b(4) <= 17
 Constraint12_4_0: b(4) >= 9
 Constraint11_4_1: b(4) <= 17
 Constraint12_4_1: b(4) >= 9
 Constraint11_5_0: b(5) <= 17
 Constraint12_5_0: b(5) >= 9
 Constraint11_5_1: b(5) <= 17
 Constraint12_5_1: b(5) >= 9
 Constraint11_6_0: b(6) <= 17
 Constraint12_6_0: b(6) >= 9
 Constraint11_6_1: b(6) <= 17
 Constraint12_6_1: b(6) >= 9
 Constraint14:     w(6)  = 0
Bounds
 0 <= x(0,1,0) <= 1
 0 <= x(0,1,1) <= 1
 0 <= x(0,2,0) <= 1
 0 <= x(0,2,1) <= 1
 0 <= x(0,3,0) <= 1
 0 <= x(0,3,1) <= 1
 0 <= x(0,6,0) <= 1
 0 <= x(0,6,1) <= 1
 0 <= x(1,0,0) <= 1
 0 <= x(1,0,1) <= 1
 0 <= x(1,2,0) <= 1
 0 <= x(1,2,1) <= 1
 0 <= x(1,3,0) <= 1
 0 <= x(1,3,1) <= 1
 0 <= x(1,6,0) <= 1
 0 <= x(1,6,1) <= 1
 0 <= x(2,0,0) <= 1
 0 <= x(2,0,1) <= 1
 0 <= x(2,1,0) <= 1
 0 <= x(2,1,1) <= 1
 0 <= x(2,2,0) <= 1
 0 <= x(2,2,1) <= 1
 0 <= x(3,0,0) <= 1
 0 <= x(3,0,1) <= 1
 0 <= x(3,1,0) <= 1
 0 <= x(3,1,1) <= 1
 0 <= x(3,3,0) <= 1
 0 <= x(3,3,1) <= 1
 0 <= x(3,6,0) <= 1
 0 <= x(3,6,1) <= 1
 0 <= x(4,0,0) <= 1
 0 <= x(4,0,1) <= 1
 0 <= x(4,1,0) <= 1
 0 <= x(4,1,1) <= 1
 0 <= x(4,2,0) <= 1
 0 <= x(4,2,1) <= 1
 0 <= x(5,0,0) <= 1
 0 <= x(5,0,1) <= 1
 0 <= x(5,1,0) <= 1
 0 <= x(5,1,1) <= 1
 0 <= x(5,2,0) <= 1
 0 <= x(5,2,1) <= 1
 0 <= y(0) <= 1
 0 <= y(1) <= 1
 0 <= y(2) <= 1
 0 <= y(3) <= 1
 0 <= y(4) <= 1
 0 <= y(5) <= 1
 0 <= y(6) <= 1
 0 <= b(0) <= 17
 0 <= b(1) <= 17
 0 <= b(2) <= 17
 0 <= b(3) <= 17
 0 <= b(4) <= 17
 0 <= b(5) <= 17
 0 <= b(6) <= 17
 0 <= w(0) <= 1
 0 <= w(1) <= 1
 0 <= w(2) <= 1
 0 <= w(3) <= 1
 0 <= w(4) <= 1
 0 <= w(5) <= 1
 0 <= w(6) <= 1
Binaries
 x(0,1,0)  x(0,1,1)  x(0,2,0)  x(0,2,1)  x(0,3,0)  x(0,3,1)  x(0,6,0) 
 x(0,6,1)  x(1,0,0)  x(1,0,1)  x(1,2,0)  x(1,2,1)  x(1,3,0)  x(1,3,1) 
 x(1,6,0)  x(1,6,1)  x(2,0,0)  x(2,0,1)  x(2,1,0)  x(2,1,1)  x(2,2,0) 
 x(2,2,1)  x(3,0,0)  x(3,0,1)  x(3,1,0)  x(3,1,1)  x(3,3,0)  x(3,3,1) 
 x(3,6,0)  x(3,6,1)  x(4,0,0)  x(4,0,1)  x(4,1,0)  x(4,1,1)  x(4,2,0) 
 x(4,2,1)  x(5,0,0)  x(5,0,1)  x(5,1,0)  x(5,1,1)  x(5,2,0)  x(5,2,1)  y(0) 
 y(1)  y(2)  y(3)  y(4)  y(5)  y(6) 
End
